 $CONTRL SCFTYP=UHF RUNTYP=ENERGY COORD=CART UNITS=ANGS MULT=1 $END
 $SYSTEM MWORDS=200 $END
 $DFT METHOD=GRID DFTTYP=B3LYP $END
 $BASIS EXTFIL=.TRUE. GBASIS=6311GDS $END
 $GUESS GUESS=HUCKEL $END
 $DATA
FLUORINE
C1
F   9.0   0.0000   0.0000   0.0000
F   9.0   0.0000   0.0000   1.4119
 $END
~            
