 $CONTRL SCFTYP=RHF COORD=CART MULT=1 RUNTYP=ENERGY  $END
 $SYSTEM TIMLIM=2000 $END
 $DFT METHOD=GRID DFTTYP=NONE $END
 $BASIS EXTFIL=.TRUE. GBASIS=6311G2DF $END
 $GUESS GUESS=HUCKEL $END
 $DATA
C
C1
C   6.0   0.0000   0.0000   0.0000
 $END

