 $CONTRL SCFTYP=UHF RUNTYP=ENERGY COORD=CART UNITS=ANGS MULT=3 $END
 $SYSTEM MWORDS=200 $END
 $DFT METHOD=GRID DFTTYP=B3LYP $END
 $BASIS EXTFIL=.TRUE. GBASIS=6311GDS $END
 $GUESS GUESS=HUCKEL $END
 $DATA
FLUORINE
C1
CL   17.0   0.0000   0.0000   0.0000
CL   17.0   0.0000   0.0000   1.9879
 $END
~            
