 $CONTRL SCFTYP=UHF COORD=CART MULT=2 RUNTYP=ENERGY  $END
 $SYSTEM TIMLIM=2000 $END
 $DFT METHOD=GRID DFTTYP=NONE $END
 $BASIS EXTFIL=.TRUE. GBASIS=6311GDS $END
 $GUESS GUESS=HUCKEL $END
 $DATA
B
C1
B   5.0   0.0000   0.0000   0.0000
 $END

