 $CONTRL SCFTYP=RHF COORD=CART MULT=1 RUNTYP=ENERGY  $END
 $SYSTEM TIMLIM=2000 $END
 $DFT METHOD=GRID DFTTYP=NONE $END
 $BASIS EXTFIL=.TRUE. GBASIS=6-21G $END
 $GUESS GUESS=HUCKEL $END
 $DATA
BE
C1
BE   4.0   0.0000   0.0000   0.0000
 $END

