 $CONTRL SCFTYP=UHF RUNTYP=ENERGY COORD=CART UNITS=ANGS MULT=1 $END
 $SYSTEM MWORDS=200 $END
 $DFT METHOD=GRID DFTTYP=B3LYP $END
 $BASIS EXTFIL=.TRUE. GBASIS=6311GDS $END
 $GUESS GUESS=HUCKEL $END
 $DATA
H2
C1
H   1.0   0.0000   0.0000   0.0000
H   1.0   0.0000   0.0000   0.7414
 $END
~            
