 $CONTRL SCFTYP=UHF RUNTYP=ENERGY COORD=CART UNITS=ANGS MULT=3 $END
 $SYSTEM MWORDS=200 $END
 $DFT METHOD=GRID DFTTYP=B3LYP $END
 $BASIS EXTFIL=.TRUE. GBASIS=6311GDS $END
 $GUESS GUESS=HUCKEL $END
 $DATA
NITROGEN
C1
H   7.0   0.0000   0.0000   0.5488
H   7.0   0.0000   0.0000  -0.5488
 $END
~            
